1) A_131_3964_1

Bicliques> cat data/A_131_3964_1 | ./CNF2cg | ./BCC2SAT 131 -sb -cs "" ""
c ** Parameters **
c V                                     3964
c E                                     157484
c B                                     131
c ** Statistics **
c  bc-variables                         1038568
c  edge-variables                       20630404
c total-variables                       21668972
c  bc-clauses                           2017180968
c   bc-lit-occurrences                  4034361936
c  edge-clauses                         123782424
c   edge-lit-occurrences                371347272
c  cover-clauses                        157484
c   cover-lit-occurrences               20630404
c  unit-clauses                         0
c total-clauses                         2141120876
c total-lit-occurrences                 4426339612

Bicliques> cat data/A_131_3964_1 | ./CNF2cg | ./BCC2SAT 128 +sb -cs "" ""
c "./BCC2SAT" "128" "+sb" "-cs" "" ""
c ** Parameters **
c B                                     128
c sb-option                             basic-sb
c pt-option                             cover
c comments-option                       with-comments
c dimacs-parameter-option               with-parameters
c clauses-option                        without-cs
c sb-rounds                             100
c num_e-seeds                           0
c ** Symmetry Breaking **
c planted-edges                         128
c sb-stats                              100 : 122 125.04 128; 1.35527
c sb-seed                               7
c ** Statistics **
c V                                     3964
c E                                     157484
c B                                     128
c  bc-variables                         1014784
c  edge-variables                       20157952
c total-variables                       21172736
c  bc-clauses                           1970985984
c   bc-lit-occurrences                  3941971968
c  edge-clauses                         120947712
c   edge-lit-occurrences                362843136
c  cover-clauses                        157484
c   cover-lit-occurrences               20157952
c  unit-clauses                         384
c total-clauses                         2092091564
c total-lit-occurrences                 4324973440
p cnf 21172736 2092091564

No better symmetry-breaking with 10000 trials:
Bicliques> cat data/A_131_3964_1 | ./CNF2cg | ./BCC2SAT 128 +sb -cs 10000 ""
c sb-stats                              10000 : 118 124.868 128; 1.44571


SAT-solving on server:

Creating the cnf-file:
Bicliques> time cat data/A_131_3964_1 | ./CNF2cg | ./BCC2SAT 128 +sb "" "" "" > data/A_131_3964_1__128.cnf
real    7m40.211s
user    7m22.261s
sys     0m17.993s
Bicliques> ls -l data/A_131_3964_1__128.cnf
38384519954data/A_131_3964_1__128.cnf
Bicliques> Bicliques> head -32 data/A_131_3964_1__128.cnf
c "./BCC2SAT" "128" "+sb" "" "" ""
c ** Parameters **
c B                                     128
c sb-option                             basic-sb
c pt-option                             cover
c comments-option                       with-comments
c dimacs-parameter-option               with-parameters
c clauses-option                        with-cs
c sb-rounds                             100
c num_e-seeds                           0
c ** Symmetry Breaking **
c planted-edges                         128
c sb-stats                              100 : 122 125.04 128; 1.35527
c sb-seed                               7
c ** Statistics **
c V                                     3964
c E                                     157484
c B                                     128
c  bc-variables                         1014784
c  edge-variables                       20157952
c total-variables                       21172736
c  bc-clauses                           1970985984
c   bc-lit-occurrences                  3941971968
c  edge-clauses                         120947712
c   edge-lit-occurrences                362843136
c  cover-clauses                        157484
c   cover-lit-occurrences               20157952
c  unit-clauses                         384
c total-clauses                         2092091564
c total-lit-occurrences                 4324973440
p cnf 21172736 2092091564
-1 -3965 0

Minisat:

Bicliques> minisat-2.2.0 data/A_131_3964_1__128.cnf
Segmentation fault (core dumped)
Bicliques> minisat-2.2.0 -no-solve data/A_131_3964_1__128.cnf
Segmentation fault (core dumped)
Bicliques> minisat-2.2.0 -no-pre data/A_131_3964_1__128.cnf
INDETERMINATE

Bicliques> minisat data/A_131_3964_1__128.cnf
Segmentation fault (core dumped)


OKsolver:

Bicliques> OKsolver2002 data/A_131_3964_1__128.cnf
s SATISFIABLE
c sat_status                            1
c initial_maximal_clause_length         128
c initial_number_of_variables           21172736
c initial_number_of_clauses             2092091564
c initial_number_of_literal_occurrences 4324973440
c number_of_initial_unit-eliminations   21167448
c reddiff_maximal_clause_length         125
c reddiff_number_of_variables           21167448
c reddiff_number_of_clauses             2092078318
c reddiff_number_of_literal_occurrences 4324946737
c number_of_2-clauses_after_reduction   13035
c running_time(sec)                     530.6
c number_of_nodes                       2
c number_of_single_nodes                0
c number_of_quasi_single_nodes          1
c number_of_2-reductions                0
c number_of_pure_literals               0
c number_of_autarkies                   630
c number_of_missed_single_nodes         0
c max_tree_depth                        1
c proportion_searched                   0.000000e+00
c proportion_single                     0.000000e+00
c total_proportion                      0
c number_of_table_enlargements          0
c number_of_1-autarkies                 3396
c number_of_new_2-clauses               0
c maximal_number_of_added_2-clauses     0
c file_name                             data/A_131_3964_1__128.cnf

Thus bcc=128.
With the clean-up represenstation, minisat should also easily solve this.

Without creating the cnf-file:
Bicliques> cat data/A_131_3964_1 | ./CNF2cg | ./BCC2SAT "" "" "" "" "" | OKsolver2002 -B -MAXN=21172736 -MAXK=2092091564 -MAXL=4324973440 cin
s SATISFIABLE
c sat_status                            1
c initial_maximal_clause_length         128
c initial_number_of_variables           21172736
c initial_number_of_clauses             2092091564
c initial_number_of_literal_occurrences 4324973440
c number_of_initial_unit-eliminations   21167448
c reddiff_maximal_clause_length         125
c reddiff_number_of_variables           21167448
c reddiff_number_of_clauses             2092078318
c reddiff_number_of_literal_occurrences 4324946737
c number_of_2-clauses_after_reduction   13035
c running_time(sec)                     528.3
c number_of_nodes                       2
c number_of_single_nodes                0
c number_of_quasi_single_nodes          1
c number_of_2-reductions                0
c number_of_pure_literals               0
c number_of_autarkies                   630
c number_of_missed_single_nodes         0
c max_tree_depth                        1
c proportion_searched                   0.000000e+00
c proportion_single                     0.000000e+00
c total_proportion                      0
c number_of_table_enlargements          0
c number_of_1-autarkies                 3396
c number_of_new_2-clauses               0
c maximal_number_of_added_2-clauses     0
c file_name                             cin

Bicliques> cat data/A_131_3964_1 | ./CNF2cg | ./BCC2SAT "" "" "" "" "" | minisat-2.2.0 -no-pre /dev/stdin
INDETERMINATE


Explicit UCP:

Bicliques> time cat data/A_131_3964_1__128.cnf | UnitClausePropagation > data/A_131_3964_1__128_ucp.cnf
real    47m41.604s
user    40m56.193s
sys     7m29.899s
max 347 GB
Bicliques> ls -l data/A_131_3964_1__128_ucp.cnf
246665 data/A_131_3964_1__128_ucp.cnf
Bicliques> head -40 data/A_131_3964_1__128_ucp.cnf
c "./BCC2SAT" "128" "+sb" "" "" ""
c ** Parameters **
c B                                     128
c sb-option                             basic-sb
c pt-option                             cover
c comments-option                       with-comments
c dimacs-parameter-option               with-parameters
c clauses-option                        with-cs
c sb-rounds                             100
c num_e-seeds                           0
c ** Symmetry Breaking **
c planted-edges                         128
c sb-stats                              100 : 122 125.04 128; 1.35527
c sb-seed                               7
c ** Statistics **
c V                                     3964
c E                                     157484
c B                                     128
c  bc-variables                         1014784
c  edge-variables                       20157952
c total-variables                       21172736
c  bc-clauses                           1970985984
c   bc-lit-occurrences                  3941971968
c  edge-clauses                         120947712
c   edge-lit-occurrences                362843136
c  cover-clauses                        157484
c   cover-lit-occurrences               20157952
c  unit-clauses                         384
c total-clauses                         2092091564
c total-lit-occurrences                 4324973440
c Additional comments regarding the unit-clause propagation:
c The original parameter were: n = 21172736, c = 2092091564.
c After elimination of empty clauses, unit-clauses and tautological clauses the number of clauses is 2092091180.
c Number of unit-clauses in input = 384.
c UCP performed 21167448 assignments.
p cnf 21123393 13246
-622361 -619436 0
-622372 -619436 0
-622373 -619436 0
-622374 -619436 0

Bicliques> minisat-2.2.0 data/A_131_3964_1__128_ucp.cnf
Number of variables:      21123393
Number of clauses:           13246
Parse time:                   2.12 s
Eliminated clauses:         161.20 Mb
Simplification time:          3.12 s
restarts              : 1
conflicts             : 0              (0 /sec)
decisions             : 1              (0.00 % random) (0 /sec)
propagations          : 0              (0 /sec)
conflict literals     : 0              (-nan % deleted)
Memory used           : 2697.37 MB
CPU time              : 5.31096 s
SATISFIABLE

Using OKsolver for UCP:
Bicliques> cat data/A_131_3964_1 | ./CNF2cg | ./BCC2SAT 128 "" "" "" "" | OKsolver2002 -B -MAXN=21172736 -MAXK=2092091564 -MAXL=4324973440 -P cin
s UNKNOWN
c sat_status                            2
c initial_maximal_clause_length         128
c initial_number_of_variables           21172736
c initial_number_of_clauses             2092091564
c initial_number_of_literal_occurrences 4324973440
c number_of_initial_unit-eliminations   21167448
c reddiff_maximal_clause_length         125
c reddiff_number_of_variables           21167448
c reddiff_number_of_clauses             2092078318
c reddiff_number_of_literal_occurrences 4324946737
c number_of_2-clauses_after_reduction   0
c running_time(sec)                     529.0
c number_of_nodes                       0
c number_of_single_nodes                0
c number_of_quasi_single_nodes          0
c number_of_2-reductions                0
c number_of_pure_literals               0
c number_of_autarkies                   0
c number_of_missed_single_nodes         0
c max_tree_depth                        0
c proportion_searched                   0.000000e+00
c proportion_single                     0.000000e+00
c total_proportion                      0
c number_of_table_enlargements          0
c number_of_1-autarkies                 0
c number_of_new_2-clauses               0
c maximal_number_of_added_2-clauses     0
c file_name                             cin

This is much faster, but unfortunately at the moment OKsolver doesn't output
the result (and also there is a superfluous memory-blow-up at the finish).




2) A_160_1022_1

Bicliques> cat data/A_160_1022_1 | ./CNF2cg | ./BCC2SAT 160 -sb -cs "" ""
c "./BCC2SAT" "160" "-sb" "-cs" "" ""
c ** Parameters **
c B                                     160
c sb-option                             no-sb
c pt-option                             cover
c comments-option                       with-comments
c dimacs-parameter-option               with-parameters
c clauses-option                        without-cs
c ** Statistics **
c V                                     1022
c E                                     4420
c B                                     160
c  bc-variables                         327040
c  edge-variables                       707200
c total-variables                       1034240
c  bc-clauses                           165703040
c   bc-lit-occurrences                  331406080
c  edge-clauses                         4243200
c   edge-lit-occurrences                12729600
c  cover-clauses                        4420
c   cover-lit-occurrences               707200
c  unit-clauses                         0
c total-clauses                         169950660
c total-lit-occurrences                 344842880
p cnf 1034240 169950660

Bicliques> cat data/A_160_1022_1 | ./CNF2cg | ./BCC2SAT 160 "" -cs "" ""
c "./BCC2SAT" "160" "" "-cs" "" ""
c ** Parameters **
c B                                     160
c sb-option                             basic-sb
c pt-option                             cover
c comments-option                       with-comments
c dimacs-parameter-option               with-parameters
c clauses-option                        without-cs
c sb-rounds                             100
c num_e-seeds                           0
c ** Symmetry Breaking **
c planted-edges                         157
c sb-stats                              100 : 146 152.06 157; 2.5179
c sb-seed                               44
c ** Statistics **
c V                                     1022
c E                                     4420
c B                                     160
c  bc-variables                         327040
c  edge-variables                       707200
c total-variables                       1034240
c  bc-clauses                           165703040
c   bc-lit-occurrences                  331406080
c  edge-clauses                         4243200
c   edge-lit-occurrences                12729600
c  cover-clauses                        4420
c   cover-lit-occurrences               707200
c  unit-clauses                         471
c total-clauses                         169951131
c total-lit-occurrences                 344843351
p cnf 1034240 169951131

Bicliques> time cat data/A_160_1022_1 | ./CNF2cg | ./BCC2SAT 160 "" -cs 10000 ""
c planted-edges                         160
c sb-stats                              10000 : 142 152.595 160; 2.43682
c sb-seed                               287
real    1m12.769s
user    1m12.763s
sys     0m0.009s

Thus bcc=160.


BCCbySAT version 0.9.1:
Bicliques> cat data/A_160_1022_1 | ./CNF2cg | ./BCCbySAT 160 down -bcl "" "" "" STATS LOG
# "./BCCbySAT" "160" "down" "-bcl" "" "" "" "STATS" "LOG"
# ** Parameters **
# B                                     downwards 0 160
# sb-option                             basic-sb
# pt-option                             cover
# di-option                             downwards
# so-option                             default-solver
# comments-option                       with-comments
# bicliques-option                      without-bicliques
# solver-timeout(s)                     2147483647
# sb-rounds                             100
# num_e-seeds                           0
# statistics-output                     STATS
# log-output                            LOG
# ** Results **
# sb-stats                              100 : 146 152.06 157; 2.5179
# result-type                           exact
# bcc                                   = 160
Bicliques> cat STATS
  B sat        maxn           c ptime  stime elimc rts cfs cfsps  dec decpr decps          r1 r1ps cfl cflpd     mem       t
159   0 1.02778e+06 1.68888e+08  23.6 702.01  0.49   2 142     0 4017     0     6 1.10499e+06 1523 492  4.65 11321.6 725.641

Same, but with nopre:
Bicliques> cat data/A_160_1022_1 | ./CNF2cg | ./BCCbySAT 160 nopre -bcl "" "" "" STATS LOG
Bicliques> cat STATS
  B sat        maxn           c ptime stime elimc rts cfs cfsps   dec decpr decps          r1  r1ps cfl cflpd    mem       t
159   0 1.02778e+06 1.68888e+08 17.84  3.78     0   2 113     5 12198     0   563 1.40484e+06 64897 317  6.76 6795.5 21.6472

Now upwards:
Bicliques> cat data/A_160_1022_1 | ./CNF2cg | ./BCCbySAT "" nopre,up -bcl "" "" "" STATS LOG
# "./BCCbySAT" "" "nopre,up" "-bcl" "" "" "" "STATS" "LOG"
# ** Parameters **
# B                                     upwards +0 18446744073709551615
# sb-option                             basic-sb
# pt-option                             cover
# di-option                             upwards
# so-option                             -no-pre
# comments-option                       with-comments
# bicliques-option                      without-bicliques
# solver-timeout(s)                     2147483647
# sb-rounds                             100
# num_e-seeds                           0
# statistics-output                     STATS
# log-output                            LOG
# ** Results **
# sb-stats                              100 : 146 152.06 157; 2.5179
# result-type                           exact
# bcc                                   = 160
Bicliques> cat STATS
  B sat        maxn           c ptime stime elimc rts cfs cfsps   dec decpr decps          r1  r1ps cfl cflpd     mem       t
157   0 1.01485e+06 1.66764e+08 17.53     0     0   0   0     0     0   nan     0 1.00902e+06 57572   0   nan 6714.82 17.5262
158   0 1.02131e+06 1.67826e+08 17.47  3.76     0   1   9     0  4499     0   212 1.07389e+06 50554  14     0 6761.62 21.2425
159   0 1.02778e+06 1.68888e+08 17.58  3.77     0   2 113     5 12198     0   571 1.40484e+06 65729 317  6.76  6795.5 21.3731
160   1 1.03424e+06 1.69951e+08 17.85  3.79     0   2 115     5 25028     0  1155 1.47559e+06 68082 663  1.04 6836.51 21.6739

Same, but with upper bounds:
Bicliques> cat data/A_160_1022_1 | ./CNF2cg | ./BCCbySAT +0,160 nopre,up -bcl "" "" "" STATS LOG
now without running B=160.

Now with possibly producing a solution:
Bicliques> time cat data/A_160_1022_1 | ./CNFBCC nopre "" "" "" logfile "" > A_160_1022_1_opt.cnf
real    0m36.954s
user    0m51.945s
sys     0m4.787s
No solution produced, since already optimal.
Now with forced (new) solution:
Bicliques> time cat data/A_160_1022_1 | ./CNFBCC nopre "" "" "" logfile 161 > A_160_1022_1_opt.cnf
real    1m11.980s
user    1m43.207s
sys     0m8.333s
> head A_160_1022_1_opt.cnf
p cnf 160 1022
-104 0
-33 -100 0
-28 0
32 0
10 0
2 0
96 0
41 0
25 0

Bicliques> less logfile
CPU time              : 21.3226 s
SATISFIABLE
CPU time              : 21.3172 s
UNSATISFIABLE




3) A_77_1090_1

Measurements:

Bicliques> cat data/A_77_1090_1 | ./CNF2cg | ./BCC2SAT 77 -sb -cs "" ""
c "./BCC2SAT" "77" "-sb" "-cs" "" ""
c ** Parameters **
c B                                     77
c sb-option                             no-sb
c pt-option                             cover
c comments-option                       with-comments
c dimacs-parameter-option               with-parameters
c clauses-option                        without-cs
c ** Statistics **
c V                                     1090
c E                                     7026
c B                                     77
c  bc-variables                         167860
c  edge-variables                       541002
c total-variables                       708862
c  bc-clauses                           90401696
c   bc-lit-occurrences                  180803392
c  edge-clauses                         3246012
c   edge-lit-occurrences                9738036
c  cover-clauses                        7026
c   cover-lit-occurrences               541002
c  unit-clauses                         0
c total-clauses                         93654734
c total-lit-occurrences                 191082430
p cnf 708862 93654734

Symmetry-breaking:

Bicliques> cat data/A_77_1090_1 | ./CNF2cg | ./BCC2SAT 77 "" -cs "" ""
c "./BCC2SAT" "77" "" "-cs" "" ""
c ** Parameters **
c B                                     77
c sb-option                             basic-sb
c pt-option                             cover
c comments-option                       with-comments
c dimacs-parameter-option               with-parameters
c clauses-option                        without-cs
c sb-rounds                             100
c num_e-seeds                           0
c ** Symmetry Breaking **
c planted-edges                         77
c sb-stats                              100 : 74 76.71 77; 0.518253
c sb-seed                               1
c ** Statistics **
c V                                     1090
c E                                     7026
c B                                     77
c  bc-variables                         167860
c  edge-variables                       541002
c total-variables                       708862
c  bc-clauses                           90401696
c   bc-lit-occurrences                  180803392
c  edge-clauses                         3246012
c   edge-lit-occurrences                9738036
c  cover-clauses                        7026
c   cover-lit-occurrences               541002
c  unit-clauses                         231
c total-clauses                         93654965
c total-lit-occurrences                 191082661
p cnf 708862 93654965

So upper bound equals lower bound -- B=77 is optimal.


Bicliques> time cat data/A_77_1090_1 | ./CNFBCC nopre "" "" "" logfile 78 > A_77_1090_1_opt.cnf
real    0m20.284s
user    0m28.792s
sys     0m2.259s
Bicliques> head data/A_77_1090_1_opt.cnf
p cnf 77 1090
55 0
-45 0
-45 0
-45 0
45 0
45 0
-45 0
-49 0
